% Generated by MiniZinc 2.9.3
% Solver library: /home/nd60/opt/minizinc/share/minizinc/chuffed
% Command line invocation: minizinc -c --solver chuffed models/static_guards.mzn models/90.dzn 

array [1..2] of int: X_INTRODUCED_90_ = [1,-1];
var 1..2: X_INTRODUCED_0_;
var 1..2: X_INTRODUCED_1_;
var 1..2: X_INTRODUCED_2_;
var 1..2: X_INTRODUCED_3_;
var 1..2: X_INTRODUCED_4_;
var 1..2: X_INTRODUCED_5_;
var 1..2: X_INTRODUCED_6_;
var 1..2: X_INTRODUCED_7_;
var 1..2: X_INTRODUCED_8_;
var 1..2: X_INTRODUCED_9_;
var 1..2: X_INTRODUCED_10_;
var 1..2: X_INTRODUCED_11_;
var 1..2: X_INTRODUCED_12_;
var 1..2: X_INTRODUCED_13_;
var 1..2: X_INTRODUCED_14_;
var 1..2: X_INTRODUCED_15_;
var 1..2: X_INTRODUCED_16_;
var 1..2: X_INTRODUCED_17_;
var 1..2: X_INTRODUCED_18_;
var 1..2: X_INTRODUCED_19_;
var 1..2: X_INTRODUCED_20_;
var 1..2: X_INTRODUCED_21_;
var 1..2: X_INTRODUCED_22_;
var 1..2: X_INTRODUCED_23_;
var 1..2: X_INTRODUCED_24_;
var 1..2: X_INTRODUCED_25_;
var 1..2: X_INTRODUCED_26_;
var 1..2: X_INTRODUCED_27_;
var 1..2: X_INTRODUCED_28_;
var 1..2: X_INTRODUCED_29_;
var 1..2: X_INTRODUCED_30_;
var 1..2: X_INTRODUCED_31_;
var 1..2: X_INTRODUCED_32_;
var 1..2: X_INTRODUCED_33_;
var 1..2: X_INTRODUCED_34_;
var 1..2: X_INTRODUCED_35_;
var 1..2: X_INTRODUCED_36_;
var 1..2: X_INTRODUCED_37_;
var 1..2: X_INTRODUCED_38_;
var 1..2: X_INTRODUCED_39_;
var 1..2: X_INTRODUCED_40_;
var 1..2: X_INTRODUCED_41_;
var 1..2: X_INTRODUCED_42_;
var 1..2: X_INTRODUCED_43_;
var 1..2: X_INTRODUCED_44_;
var 1..2: X_INTRODUCED_45_;
var 1..2: X_INTRODUCED_46_;
var 1..2: X_INTRODUCED_47_;
var 1..2: X_INTRODUCED_48_;
var 1..2: X_INTRODUCED_49_;
var 1..2: X_INTRODUCED_50_;
var 1..2: X_INTRODUCED_51_;
var 1..2: X_INTRODUCED_52_;
var 1..2: X_INTRODUCED_53_;
var 1..2: X_INTRODUCED_54_;
var 1..2: X_INTRODUCED_55_;
var 1..2: X_INTRODUCED_56_;
var 1..2: X_INTRODUCED_57_;
var 1..2: X_INTRODUCED_58_;
var 1..2: X_INTRODUCED_59_;
var 1..2: X_INTRODUCED_60_;
var 1..2: X_INTRODUCED_61_;
var 1..2: X_INTRODUCED_62_;
var 1..2: X_INTRODUCED_63_;
var 1..2: X_INTRODUCED_64_;
var 1..2: X_INTRODUCED_65_;
var 1..2: X_INTRODUCED_66_;
var 1..2: X_INTRODUCED_67_;
var 1..2: X_INTRODUCED_68_;
var 1..2: X_INTRODUCED_69_;
var 1..2: X_INTRODUCED_70_;
var 1..2: X_INTRODUCED_71_;
var 1..2: X_INTRODUCED_72_;
var 1..2: X_INTRODUCED_73_;
var 1..2: X_INTRODUCED_74_;
var 1..2: X_INTRODUCED_75_;
var 1..2: X_INTRODUCED_76_;
var 1..2: X_INTRODUCED_77_;
var 1..2: X_INTRODUCED_78_;
var 1..2: X_INTRODUCED_79_;
var 1..2: X_INTRODUCED_80_;
var 1..2: X_INTRODUCED_81_;
var 1..2: X_INTRODUCED_82_;
var 1..2: X_INTRODUCED_83_;
var 1..2: X_INTRODUCED_84_;
var 1..2: X_INTRODUCED_85_;
var 1..2: X_INTRODUCED_86_;
var 1..2: X_INTRODUCED_87_;
var 1..2: X_INTRODUCED_88_;
var 1..2: X_INTRODUCED_89_;
var bool: X_INTRODUCED_91_ ::var_is_introduced :: is_defined_var;
var bool: X_INTRODUCED_92_ ::var_is_introduced :: is_defined_var;
var bool: X_INTRODUCED_93_ ::var_is_introduced :: is_defined_var;
var bool: X_INTRODUCED_95_ ::var_is_introduced :: is_defined_var;
var bool: X_INTRODUCED_96_ ::var_is_introduced :: is_defined_var;
var bool: X_INTRODUCED_97_ ::var_is_introduced :: is_defined_var;
var bool: X_INTRODUCED_99_ ::var_is_introduced :: is_defined_var;
var bool: X_INTRODUCED_100_ ::var_is_introduced :: is_defined_var;
var bool: X_INTRODUCED_101_ ::var_is_introduced :: is_defined_var;
var bool: X_INTRODUCED_103_ ::var_is_introduced :: is_defined_var;
var bool: X_INTRODUCED_104_ ::var_is_introduced :: is_defined_var;
var bool: X_INTRODUCED_105_ ::var_is_introduced :: is_defined_var;
var bool: X_INTRODUCED_107_ ::var_is_introduced :: is_defined_var;
var bool: X_INTRODUCED_108_ ::var_is_introduced :: is_defined_var;
var bool: X_INTRODUCED_109_ ::var_is_introduced :: is_defined_var;
var bool: X_INTRODUCED_111_ ::var_is_introduced :: is_defined_var;
var bool: X_INTRODUCED_112_ ::var_is_introduced :: is_defined_var;
var bool: X_INTRODUCED_113_ ::var_is_introduced :: is_defined_var;
var bool: X_INTRODUCED_115_ ::var_is_introduced :: is_defined_var;
var bool: X_INTRODUCED_116_ ::var_is_introduced :: is_defined_var;
var bool: X_INTRODUCED_117_ ::var_is_introduced :: is_defined_var;
var bool: X_INTRODUCED_119_ ::var_is_introduced :: is_defined_var;
var bool: X_INTRODUCED_120_ ::var_is_introduced :: is_defined_var;
var bool: X_INTRODUCED_121_ ::var_is_introduced :: is_defined_var;
var bool: X_INTRODUCED_123_ ::var_is_introduced :: is_defined_var;
var bool: X_INTRODUCED_124_ ::var_is_introduced :: is_defined_var;
var bool: X_INTRODUCED_125_ ::var_is_introduced :: is_defined_var;
var bool: X_INTRODUCED_127_ ::var_is_introduced :: is_defined_var;
var bool: X_INTRODUCED_128_ ::var_is_introduced :: is_defined_var;
var bool: X_INTRODUCED_129_ ::var_is_introduced :: is_defined_var;
var bool: X_INTRODUCED_131_ ::var_is_introduced :: is_defined_var;
var bool: X_INTRODUCED_132_ ::var_is_introduced :: is_defined_var;
var bool: X_INTRODUCED_133_ ::var_is_introduced :: is_defined_var;
var bool: X_INTRODUCED_135_ ::var_is_introduced :: is_defined_var;
var bool: X_INTRODUCED_136_ ::var_is_introduced :: is_defined_var;
var bool: X_INTRODUCED_137_ ::var_is_introduced :: is_defined_var;
var bool: X_INTRODUCED_139_ ::var_is_introduced :: is_defined_var;
var bool: X_INTRODUCED_140_ ::var_is_introduced :: is_defined_var;
var bool: X_INTRODUCED_141_ ::var_is_introduced :: is_defined_var;
var bool: X_INTRODUCED_143_ ::var_is_introduced :: is_defined_var;
var bool: X_INTRODUCED_144_ ::var_is_introduced :: is_defined_var;
var bool: X_INTRODUCED_145_ ::var_is_introduced :: is_defined_var;
var bool: X_INTRODUCED_147_ ::var_is_introduced :: is_defined_var;
var bool: X_INTRODUCED_148_ ::var_is_introduced :: is_defined_var;
var bool: X_INTRODUCED_149_ ::var_is_introduced :: is_defined_var;
var bool: X_INTRODUCED_151_ ::var_is_introduced :: is_defined_var;
var bool: X_INTRODUCED_152_ ::var_is_introduced :: is_defined_var;
var bool: X_INTRODUCED_153_ ::var_is_introduced :: is_defined_var;
var bool: X_INTRODUCED_155_ ::var_is_introduced :: is_defined_var;
var bool: X_INTRODUCED_156_ ::var_is_introduced :: is_defined_var;
var bool: X_INTRODUCED_157_ ::var_is_introduced :: is_defined_var;
var bool: X_INTRODUCED_159_ ::var_is_introduced :: is_defined_var;
var bool: X_INTRODUCED_160_ ::var_is_introduced :: is_defined_var;
var bool: X_INTRODUCED_161_ ::var_is_introduced :: is_defined_var;
var bool: X_INTRODUCED_163_ ::var_is_introduced :: is_defined_var;
var bool: X_INTRODUCED_164_ ::var_is_introduced :: is_defined_var;
var bool: X_INTRODUCED_165_ ::var_is_introduced :: is_defined_var;
var bool: X_INTRODUCED_167_ ::var_is_introduced :: is_defined_var;
var bool: X_INTRODUCED_168_ ::var_is_introduced :: is_defined_var;
var bool: X_INTRODUCED_169_ ::var_is_introduced :: is_defined_var;
var bool: X_INTRODUCED_171_ ::var_is_introduced :: is_defined_var;
var bool: X_INTRODUCED_172_ ::var_is_introduced :: is_defined_var;
var bool: X_INTRODUCED_173_ ::var_is_introduced :: is_defined_var;
var bool: X_INTRODUCED_175_ ::var_is_introduced :: is_defined_var;
var bool: X_INTRODUCED_176_ ::var_is_introduced :: is_defined_var;
var bool: X_INTRODUCED_177_ ::var_is_introduced :: is_defined_var;
var bool: X_INTRODUCED_179_ ::var_is_introduced :: is_defined_var;
var bool: X_INTRODUCED_180_ ::var_is_introduced :: is_defined_var;
var bool: X_INTRODUCED_181_ ::var_is_introduced :: is_defined_var;
var bool: X_INTRODUCED_183_ ::var_is_introduced :: is_defined_var;
var bool: X_INTRODUCED_184_ ::var_is_introduced :: is_defined_var;
var bool: X_INTRODUCED_185_ ::var_is_introduced :: is_defined_var;
var bool: X_INTRODUCED_187_ ::var_is_introduced :: is_defined_var;
var bool: X_INTRODUCED_188_ ::var_is_introduced :: is_defined_var;
var bool: X_INTRODUCED_189_ ::var_is_introduced :: is_defined_var;
var bool: X_INTRODUCED_191_ ::var_is_introduced :: is_defined_var;
var bool: X_INTRODUCED_192_ ::var_is_introduced :: is_defined_var;
var bool: X_INTRODUCED_193_ ::var_is_introduced :: is_defined_var;
var bool: X_INTRODUCED_195_ ::var_is_introduced :: is_defined_var;
var bool: X_INTRODUCED_196_ ::var_is_introduced :: is_defined_var;
var bool: X_INTRODUCED_197_ ::var_is_introduced :: is_defined_var;
var bool: X_INTRODUCED_199_ ::var_is_introduced :: is_defined_var;
var bool: X_INTRODUCED_200_ ::var_is_introduced :: is_defined_var;
var bool: X_INTRODUCED_201_ ::var_is_introduced :: is_defined_var;
var bool: X_INTRODUCED_203_ ::var_is_introduced :: is_defined_var;
var bool: X_INTRODUCED_204_ ::var_is_introduced :: is_defined_var;
var bool: X_INTRODUCED_205_ ::var_is_introduced :: is_defined_var;
var bool: X_INTRODUCED_207_ ::var_is_introduced :: is_defined_var;
var bool: X_INTRODUCED_208_ ::var_is_introduced :: is_defined_var;
var bool: X_INTRODUCED_209_ ::var_is_introduced :: is_defined_var;
var bool: X_INTRODUCED_211_ ::var_is_introduced :: is_defined_var;
var bool: X_INTRODUCED_212_ ::var_is_introduced :: is_defined_var;
var bool: X_INTRODUCED_213_ ::var_is_introduced :: is_defined_var;
var bool: X_INTRODUCED_215_ ::var_is_introduced :: is_defined_var;
var bool: X_INTRODUCED_216_ ::var_is_introduced :: is_defined_var;
var bool: X_INTRODUCED_217_ ::var_is_introduced :: is_defined_var;
var bool: X_INTRODUCED_219_ ::var_is_introduced :: is_defined_var;
var bool: X_INTRODUCED_220_ ::var_is_introduced :: is_defined_var;
var bool: X_INTRODUCED_221_ ::var_is_introduced :: is_defined_var;
var bool: X_INTRODUCED_223_ ::var_is_introduced :: is_defined_var;
var bool: X_INTRODUCED_224_ ::var_is_introduced :: is_defined_var;
var bool: X_INTRODUCED_225_ ::var_is_introduced :: is_defined_var;
var bool: X_INTRODUCED_227_ ::var_is_introduced :: is_defined_var;
var bool: X_INTRODUCED_228_ ::var_is_introduced :: is_defined_var;
var bool: X_INTRODUCED_229_ ::var_is_introduced :: is_defined_var;
var bool: X_INTRODUCED_231_ ::var_is_introduced :: is_defined_var;
var bool: X_INTRODUCED_232_ ::var_is_introduced :: is_defined_var;
var bool: X_INTRODUCED_233_ ::var_is_introduced :: is_defined_var;
var bool: X_INTRODUCED_235_ ::var_is_introduced :: is_defined_var;
var bool: X_INTRODUCED_236_ ::var_is_introduced :: is_defined_var;
var bool: X_INTRODUCED_237_ ::var_is_introduced :: is_defined_var;
var bool: X_INTRODUCED_239_ ::var_is_introduced :: is_defined_var;
var bool: X_INTRODUCED_240_ ::var_is_introduced :: is_defined_var;
var bool: X_INTRODUCED_241_ ::var_is_introduced :: is_defined_var;
var bool: X_INTRODUCED_243_ ::var_is_introduced :: is_defined_var;
var bool: X_INTRODUCED_244_ ::var_is_introduced :: is_defined_var;
var bool: X_INTRODUCED_245_ ::var_is_introduced :: is_defined_var;
var bool: X_INTRODUCED_247_ ::var_is_introduced :: is_defined_var;
var bool: X_INTRODUCED_248_ ::var_is_introduced :: is_defined_var;
var bool: X_INTRODUCED_249_ ::var_is_introduced :: is_defined_var;
var bool: X_INTRODUCED_251_ ::var_is_introduced :: is_defined_var;
var bool: X_INTRODUCED_252_ ::var_is_introduced :: is_defined_var;
var bool: X_INTRODUCED_253_ ::var_is_introduced :: is_defined_var;
var bool: X_INTRODUCED_255_ ::var_is_introduced :: is_defined_var;
var bool: X_INTRODUCED_256_ ::var_is_introduced :: is_defined_var;
var bool: X_INTRODUCED_257_ ::var_is_introduced :: is_defined_var;
var bool: X_INTRODUCED_259_ ::var_is_introduced :: is_defined_var;
var bool: X_INTRODUCED_260_ ::var_is_introduced :: is_defined_var;
var bool: X_INTRODUCED_261_ ::var_is_introduced :: is_defined_var;
var bool: X_INTRODUCED_263_ ::var_is_introduced :: is_defined_var;
var bool: X_INTRODUCED_264_ ::var_is_introduced :: is_defined_var;
var bool: X_INTRODUCED_265_ ::var_is_introduced :: is_defined_var;
var bool: X_INTRODUCED_267_ ::var_is_introduced :: is_defined_var;
var bool: X_INTRODUCED_268_ ::var_is_introduced :: is_defined_var;
var bool: X_INTRODUCED_269_ ::var_is_introduced :: is_defined_var;
var bool: X_INTRODUCED_271_ ::var_is_introduced :: is_defined_var;
var bool: X_INTRODUCED_272_ ::var_is_introduced :: is_defined_var;
var bool: X_INTRODUCED_273_ ::var_is_introduced :: is_defined_var;
var bool: X_INTRODUCED_275_ ::var_is_introduced :: is_defined_var;
var bool: X_INTRODUCED_276_ ::var_is_introduced :: is_defined_var;
var bool: X_INTRODUCED_277_ ::var_is_introduced :: is_defined_var;
array [1..90] of var int: class:: output_array([1..90]) = [X_INTRODUCED_0_,X_INTRODUCED_1_,X_INTRODUCED_2_,X_INTRODUCED_3_,X_INTRODUCED_4_,X_INTRODUCED_5_,X_INTRODUCED_6_,X_INTRODUCED_7_,X_INTRODUCED_8_,X_INTRODUCED_9_,X_INTRODUCED_10_,X_INTRODUCED_11_,X_INTRODUCED_12_,X_INTRODUCED_13_,X_INTRODUCED_14_,X_INTRODUCED_15_,X_INTRODUCED_16_,X_INTRODUCED_17_,X_INTRODUCED_18_,X_INTRODUCED_19_,X_INTRODUCED_20_,X_INTRODUCED_21_,X_INTRODUCED_22_,X_INTRODUCED_23_,X_INTRODUCED_24_,X_INTRODUCED_25_,X_INTRODUCED_26_,X_INTRODUCED_27_,X_INTRODUCED_28_,X_INTRODUCED_29_,X_INTRODUCED_30_,X_INTRODUCED_31_,X_INTRODUCED_32_,X_INTRODUCED_33_,X_INTRODUCED_34_,X_INTRODUCED_35_,X_INTRODUCED_36_,X_INTRODUCED_37_,X_INTRODUCED_38_,X_INTRODUCED_39_,X_INTRODUCED_40_,X_INTRODUCED_41_,X_INTRODUCED_42_,X_INTRODUCED_43_,X_INTRODUCED_44_,X_INTRODUCED_45_,X_INTRODUCED_46_,X_INTRODUCED_47_,X_INTRODUCED_48_,X_INTRODUCED_49_,X_INTRODUCED_50_,X_INTRODUCED_51_,X_INTRODUCED_52_,X_INTRODUCED_53_,X_INTRODUCED_54_,X_INTRODUCED_55_,X_INTRODUCED_56_,X_INTRODUCED_57_,X_INTRODUCED_58_,X_INTRODUCED_59_,X_INTRODUCED_60_,X_INTRODUCED_61_,X_INTRODUCED_62_,X_INTRODUCED_63_,X_INTRODUCED_64_,X_INTRODUCED_65_,X_INTRODUCED_66_,X_INTRODUCED_67_,X_INTRODUCED_68_,X_INTRODUCED_69_,X_INTRODUCED_70_,X_INTRODUCED_71_,X_INTRODUCED_72_,X_INTRODUCED_73_,X_INTRODUCED_74_,X_INTRODUCED_75_,X_INTRODUCED_76_,X_INTRODUCED_77_,X_INTRODUCED_78_,X_INTRODUCED_79_,X_INTRODUCED_80_,X_INTRODUCED_81_,X_INTRODUCED_82_,X_INTRODUCED_83_,X_INTRODUCED_84_,X_INTRODUCED_85_,X_INTRODUCED_86_,X_INTRODUCED_87_,X_INTRODUCED_88_,X_INTRODUCED_89_];
constraint int_lin_ne_reif(X_INTRODUCED_90_,[X_INTRODUCED_2_,X_INTRODUCED_3_],0,X_INTRODUCED_91_):: defines_var(X_INTRODUCED_91_);
constraint int_lin_ne_reif(X_INTRODUCED_90_,[X_INTRODUCED_3_,X_INTRODUCED_4_],0,X_INTRODUCED_92_):: defines_var(X_INTRODUCED_92_);
constraint int_lin_ne_reif(X_INTRODUCED_90_,[X_INTRODUCED_4_,X_INTRODUCED_2_],0,X_INTRODUCED_93_):: defines_var(X_INTRODUCED_93_);
constraint bool_clause([X_INTRODUCED_91_,X_INTRODUCED_92_,X_INTRODUCED_93_],[]);
constraint int_lin_ne_reif(X_INTRODUCED_90_,[X_INTRODUCED_4_,X_INTRODUCED_11_],0,X_INTRODUCED_95_):: defines_var(X_INTRODUCED_95_);
constraint int_lin_ne_reif(X_INTRODUCED_90_,[X_INTRODUCED_11_,X_INTRODUCED_12_],0,X_INTRODUCED_96_):: defines_var(X_INTRODUCED_96_);
constraint int_lin_ne_reif(X_INTRODUCED_90_,[X_INTRODUCED_12_,X_INTRODUCED_4_],0,X_INTRODUCED_97_):: defines_var(X_INTRODUCED_97_);
constraint bool_clause([X_INTRODUCED_95_,X_INTRODUCED_96_,X_INTRODUCED_97_],[]);
constraint int_lin_ne_reif(X_INTRODUCED_90_,[X_INTRODUCED_5_,X_INTRODUCED_7_],0,X_INTRODUCED_99_):: defines_var(X_INTRODUCED_99_);
constraint int_lin_ne_reif(X_INTRODUCED_90_,[X_INTRODUCED_7_,X_INTRODUCED_9_],0,X_INTRODUCED_100_):: defines_var(X_INTRODUCED_100_);
constraint int_lin_ne_reif(X_INTRODUCED_90_,[X_INTRODUCED_9_,X_INTRODUCED_5_],0,X_INTRODUCED_101_):: defines_var(X_INTRODUCED_101_);
constraint bool_clause([X_INTRODUCED_99_,X_INTRODUCED_100_,X_INTRODUCED_101_],[]);
constraint int_lin_ne_reif(X_INTRODUCED_90_,[X_INTRODUCED_6_,X_INTRODUCED_23_],0,X_INTRODUCED_103_):: defines_var(X_INTRODUCED_103_);
constraint int_lin_ne_reif(X_INTRODUCED_90_,[X_INTRODUCED_23_,X_INTRODUCED_24_],0,X_INTRODUCED_104_):: defines_var(X_INTRODUCED_104_);
constraint int_lin_ne_reif(X_INTRODUCED_90_,[X_INTRODUCED_24_,X_INTRODUCED_6_],0,X_INTRODUCED_105_):: defines_var(X_INTRODUCED_105_);
constraint bool_clause([X_INTRODUCED_103_,X_INTRODUCED_104_,X_INTRODUCED_105_],[]);
constraint int_lin_ne_reif(X_INTRODUCED_90_,[X_INTRODUCED_7_,X_INTRODUCED_14_],0,X_INTRODUCED_107_):: defines_var(X_INTRODUCED_107_);
constraint int_lin_ne_reif(X_INTRODUCED_90_,[X_INTRODUCED_14_,X_INTRODUCED_16_],0,X_INTRODUCED_108_):: defines_var(X_INTRODUCED_108_);
constraint int_lin_ne_reif(X_INTRODUCED_90_,[X_INTRODUCED_16_,X_INTRODUCED_7_],0,X_INTRODUCED_109_):: defines_var(X_INTRODUCED_109_);
constraint bool_clause([X_INTRODUCED_107_,X_INTRODUCED_108_,X_INTRODUCED_109_],[]);
constraint int_lin_ne_reif(X_INTRODUCED_90_,[X_INTRODUCED_8_,X_INTRODUCED_11_],0,X_INTRODUCED_111_):: defines_var(X_INTRODUCED_111_);
constraint int_lin_ne_reif(X_INTRODUCED_90_,[X_INTRODUCED_11_,X_INTRODUCED_14_],0,X_INTRODUCED_112_):: defines_var(X_INTRODUCED_112_);
constraint int_lin_ne_reif(X_INTRODUCED_90_,[X_INTRODUCED_14_,X_INTRODUCED_8_],0,X_INTRODUCED_113_):: defines_var(X_INTRODUCED_113_);
constraint bool_clause([X_INTRODUCED_111_,X_INTRODUCED_112_,X_INTRODUCED_113_],[]);
constraint int_lin_ne_reif(X_INTRODUCED_90_,[X_INTRODUCED_8_,X_INTRODUCED_39_],0,X_INTRODUCED_115_):: defines_var(X_INTRODUCED_115_);
constraint int_lin_ne_reif(X_INTRODUCED_90_,[X_INTRODUCED_39_,X_INTRODUCED_40_],0,X_INTRODUCED_116_):: defines_var(X_INTRODUCED_116_);
constraint int_lin_ne_reif(X_INTRODUCED_90_,[X_INTRODUCED_40_,X_INTRODUCED_8_],0,X_INTRODUCED_117_):: defines_var(X_INTRODUCED_117_);
constraint bool_clause([X_INTRODUCED_115_,X_INTRODUCED_116_,X_INTRODUCED_117_],[]);
constraint int_lin_ne_reif(X_INTRODUCED_90_,[X_INTRODUCED_9_,X_INTRODUCED_23_],0,X_INTRODUCED_119_):: defines_var(X_INTRODUCED_119_);
constraint int_lin_ne_reif(X_INTRODUCED_90_,[X_INTRODUCED_23_,X_INTRODUCED_25_],0,X_INTRODUCED_120_):: defines_var(X_INTRODUCED_120_);
constraint int_lin_ne_reif(X_INTRODUCED_90_,[X_INTRODUCED_25_,X_INTRODUCED_9_],0,X_INTRODUCED_121_):: defines_var(X_INTRODUCED_121_);
constraint bool_clause([X_INTRODUCED_119_,X_INTRODUCED_120_,X_INTRODUCED_121_],[]);
constraint int_lin_ne_reif(X_INTRODUCED_90_,[X_INTRODUCED_10_,X_INTRODUCED_59_],0,X_INTRODUCED_123_):: defines_var(X_INTRODUCED_123_);
constraint int_lin_ne_reif(X_INTRODUCED_90_,[X_INTRODUCED_59_,X_INTRODUCED_60_],0,X_INTRODUCED_124_):: defines_var(X_INTRODUCED_124_);
constraint int_lin_ne_reif(X_INTRODUCED_90_,[X_INTRODUCED_60_,X_INTRODUCED_10_],0,X_INTRODUCED_125_):: defines_var(X_INTRODUCED_125_);
constraint bool_clause([X_INTRODUCED_123_,X_INTRODUCED_124_,X_INTRODUCED_125_],[]);
constraint int_lin_ne_reif(X_INTRODUCED_90_,[X_INTRODUCED_11_,X_INTRODUCED_15_],0,X_INTRODUCED_127_):: defines_var(X_INTRODUCED_127_);
constraint int_lin_ne_reif(X_INTRODUCED_90_,[X_INTRODUCED_15_,X_INTRODUCED_19_],0,X_INTRODUCED_128_):: defines_var(X_INTRODUCED_128_);
constraint int_lin_ne_reif(X_INTRODUCED_90_,[X_INTRODUCED_19_,X_INTRODUCED_11_],0,X_INTRODUCED_129_):: defines_var(X_INTRODUCED_129_);
constraint bool_clause([X_INTRODUCED_127_,X_INTRODUCED_128_,X_INTRODUCED_129_],[]);
constraint int_lin_ne_reif(X_INTRODUCED_90_,[X_INTRODUCED_11_,X_INTRODUCED_34_],0,X_INTRODUCED_131_):: defines_var(X_INTRODUCED_131_);
constraint int_lin_ne_reif(X_INTRODUCED_90_,[X_INTRODUCED_34_,X_INTRODUCED_36_],0,X_INTRODUCED_132_):: defines_var(X_INTRODUCED_132_);
constraint int_lin_ne_reif(X_INTRODUCED_90_,[X_INTRODUCED_36_,X_INTRODUCED_11_],0,X_INTRODUCED_133_):: defines_var(X_INTRODUCED_133_);
constraint bool_clause([X_INTRODUCED_131_,X_INTRODUCED_132_,X_INTRODUCED_133_],[]);
constraint int_lin_ne_reif(X_INTRODUCED_90_,[X_INTRODUCED_12_,X_INTRODUCED_83_],0,X_INTRODUCED_135_):: defines_var(X_INTRODUCED_135_);
constraint int_lin_ne_reif(X_INTRODUCED_90_,[X_INTRODUCED_83_,X_INTRODUCED_84_],0,X_INTRODUCED_136_):: defines_var(X_INTRODUCED_136_);
constraint int_lin_ne_reif(X_INTRODUCED_90_,[X_INTRODUCED_84_,X_INTRODUCED_12_],0,X_INTRODUCED_137_):: defines_var(X_INTRODUCED_137_);
constraint bool_clause([X_INTRODUCED_135_,X_INTRODUCED_136_,X_INTRODUCED_137_],[]);
constraint int_lin_ne_reif(X_INTRODUCED_90_,[X_INTRODUCED_13_,X_INTRODUCED_47_],0,X_INTRODUCED_139_):: defines_var(X_INTRODUCED_139_);
constraint int_lin_ne_reif(X_INTRODUCED_90_,[X_INTRODUCED_47_,X_INTRODUCED_49_],0,X_INTRODUCED_140_):: defines_var(X_INTRODUCED_140_);
constraint int_lin_ne_reif(X_INTRODUCED_90_,[X_INTRODUCED_49_,X_INTRODUCED_13_],0,X_INTRODUCED_141_):: defines_var(X_INTRODUCED_141_);
constraint bool_clause([X_INTRODUCED_139_,X_INTRODUCED_140_,X_INTRODUCED_141_],[]);
constraint int_lin_ne_reif(X_INTRODUCED_90_,[X_INTRODUCED_14_,X_INTRODUCED_19_],0,X_INTRODUCED_143_):: defines_var(X_INTRODUCED_143_);
constraint int_lin_ne_reif(X_INTRODUCED_90_,[X_INTRODUCED_19_,X_INTRODUCED_24_],0,X_INTRODUCED_144_):: defines_var(X_INTRODUCED_144_);
constraint int_lin_ne_reif(X_INTRODUCED_90_,[X_INTRODUCED_24_,X_INTRODUCED_14_],0,X_INTRODUCED_145_):: defines_var(X_INTRODUCED_145_);
constraint bool_clause([X_INTRODUCED_143_,X_INTRODUCED_144_,X_INTRODUCED_145_],[]);
constraint int_lin_ne_reif(X_INTRODUCED_90_,[X_INTRODUCED_14_,X_INTRODUCED_35_],0,X_INTRODUCED_147_):: defines_var(X_INTRODUCED_147_);
constraint int_lin_ne_reif(X_INTRODUCED_90_,[X_INTRODUCED_35_,X_INTRODUCED_38_],0,X_INTRODUCED_148_):: defines_var(X_INTRODUCED_148_);
constraint int_lin_ne_reif(X_INTRODUCED_90_,[X_INTRODUCED_38_,X_INTRODUCED_14_],0,X_INTRODUCED_149_):: defines_var(X_INTRODUCED_149_);
constraint bool_clause([X_INTRODUCED_147_,X_INTRODUCED_148_,X_INTRODUCED_149_],[]);
constraint int_lin_ne_reif(X_INTRODUCED_90_,[X_INTRODUCED_15_,X_INTRODUCED_29_],0,X_INTRODUCED_151_):: defines_var(X_INTRODUCED_151_);
constraint int_lin_ne_reif(X_INTRODUCED_90_,[X_INTRODUCED_29_,X_INTRODUCED_33_],0,X_INTRODUCED_152_):: defines_var(X_INTRODUCED_152_);
constraint int_lin_ne_reif(X_INTRODUCED_90_,[X_INTRODUCED_33_,X_INTRODUCED_15_],0,X_INTRODUCED_153_):: defines_var(X_INTRODUCED_153_);
constraint bool_clause([X_INTRODUCED_151_,X_INTRODUCED_152_,X_INTRODUCED_153_],[]);
constraint int_lin_ne_reif(X_INTRODUCED_90_,[X_INTRODUCED_15_,X_INTRODUCED_62_],0,X_INTRODUCED_155_):: defines_var(X_INTRODUCED_155_);
constraint int_lin_ne_reif(X_INTRODUCED_90_,[X_INTRODUCED_62_,X_INTRODUCED_64_],0,X_INTRODUCED_156_):: defines_var(X_INTRODUCED_156_);
constraint int_lin_ne_reif(X_INTRODUCED_90_,[X_INTRODUCED_64_,X_INTRODUCED_15_],0,X_INTRODUCED_157_):: defines_var(X_INTRODUCED_157_);
constraint bool_clause([X_INTRODUCED_155_,X_INTRODUCED_156_,X_INTRODUCED_157_],[]);
constraint int_lin_ne_reif(X_INTRODUCED_90_,[X_INTRODUCED_17_,X_INTRODUCED_23_],0,X_INTRODUCED_159_):: defines_var(X_INTRODUCED_159_);
constraint int_lin_ne_reif(X_INTRODUCED_90_,[X_INTRODUCED_23_,X_INTRODUCED_29_],0,X_INTRODUCED_160_):: defines_var(X_INTRODUCED_160_);
constraint int_lin_ne_reif(X_INTRODUCED_90_,[X_INTRODUCED_29_,X_INTRODUCED_17_],0,X_INTRODUCED_161_):: defines_var(X_INTRODUCED_161_);
constraint bool_clause([X_INTRODUCED_159_,X_INTRODUCED_160_,X_INTRODUCED_161_],[]);
constraint int_lin_ne_reif(X_INTRODUCED_90_,[X_INTRODUCED_17_,X_INTRODUCED_79_],0,X_INTRODUCED_163_):: defines_var(X_INTRODUCED_163_);
constraint int_lin_ne_reif(X_INTRODUCED_90_,[X_INTRODUCED_79_,X_INTRODUCED_81_],0,X_INTRODUCED_164_):: defines_var(X_INTRODUCED_164_);
constraint int_lin_ne_reif(X_INTRODUCED_90_,[X_INTRODUCED_81_,X_INTRODUCED_17_],0,X_INTRODUCED_165_):: defines_var(X_INTRODUCED_165_);
constraint bool_clause([X_INTRODUCED_164_,X_INTRODUCED_165_,X_INTRODUCED_163_],[]);
constraint int_lin_ne_reif(X_INTRODUCED_90_,[X_INTRODUCED_19_,X_INTRODUCED_20_],0,X_INTRODUCED_167_):: defines_var(X_INTRODUCED_167_);
constraint int_lin_ne_reif(X_INTRODUCED_90_,[X_INTRODUCED_20_,X_INTRODUCED_28_],0,X_INTRODUCED_168_):: defines_var(X_INTRODUCED_168_);
constraint int_lin_ne_reif(X_INTRODUCED_90_,[X_INTRODUCED_28_,X_INTRODUCED_19_],0,X_INTRODUCED_169_):: defines_var(X_INTRODUCED_169_);
constraint bool_clause([X_INTRODUCED_167_,X_INTRODUCED_168_,X_INTRODUCED_169_],[]);
constraint int_lin_ne_reif(X_INTRODUCED_90_,[X_INTRODUCED_19_,X_INTRODUCED_47_],0,X_INTRODUCED_171_):: defines_var(X_INTRODUCED_171_);
constraint int_lin_ne_reif(X_INTRODUCED_90_,[X_INTRODUCED_47_,X_INTRODUCED_51_],0,X_INTRODUCED_172_):: defines_var(X_INTRODUCED_172_);
constraint int_lin_ne_reif(X_INTRODUCED_90_,[X_INTRODUCED_51_,X_INTRODUCED_19_],0,X_INTRODUCED_173_):: defines_var(X_INTRODUCED_173_);
constraint bool_clause([X_INTRODUCED_171_,X_INTRODUCED_172_,X_INTRODUCED_173_],[]);
constraint int_lin_ne_reif(X_INTRODUCED_90_,[X_INTRODUCED_20_,X_INTRODUCED_27_],0,X_INTRODUCED_175_):: defines_var(X_INTRODUCED_175_);
constraint int_lin_ne_reif(X_INTRODUCED_90_,[X_INTRODUCED_27_,X_INTRODUCED_34_],0,X_INTRODUCED_176_):: defines_var(X_INTRODUCED_176_);
constraint int_lin_ne_reif(X_INTRODUCED_90_,[X_INTRODUCED_34_,X_INTRODUCED_20_],0,X_INTRODUCED_177_):: defines_var(X_INTRODUCED_177_);
constraint bool_clause([X_INTRODUCED_175_,X_INTRODUCED_176_,X_INTRODUCED_177_],[]);
constraint int_lin_ne_reif(X_INTRODUCED_90_,[X_INTRODUCED_20_,X_INTRODUCED_71_],0,X_INTRODUCED_179_):: defines_var(X_INTRODUCED_179_);
constraint int_lin_ne_reif(X_INTRODUCED_90_,[X_INTRODUCED_71_,X_INTRODUCED_74_],0,X_INTRODUCED_180_):: defines_var(X_INTRODUCED_180_);
constraint int_lin_ne_reif(X_INTRODUCED_90_,[X_INTRODUCED_74_,X_INTRODUCED_20_],0,X_INTRODUCED_181_):: defines_var(X_INTRODUCED_181_);
constraint bool_clause([X_INTRODUCED_179_,X_INTRODUCED_180_,X_INTRODUCED_181_],[]);
constraint int_lin_ne_reif(X_INTRODUCED_90_,[X_INTRODUCED_23_,X_INTRODUCED_31_],0,X_INTRODUCED_183_):: defines_var(X_INTRODUCED_183_);
constraint int_lin_ne_reif(X_INTRODUCED_90_,[X_INTRODUCED_31_,X_INTRODUCED_39_],0,X_INTRODUCED_184_):: defines_var(X_INTRODUCED_184_);
constraint int_lin_ne_reif(X_INTRODUCED_90_,[X_INTRODUCED_39_,X_INTRODUCED_23_],0,X_INTRODUCED_185_):: defines_var(X_INTRODUCED_185_);
constraint bool_clause([X_INTRODUCED_183_,X_INTRODUCED_184_,X_INTRODUCED_185_],[]);
constraint int_lin_ne_reif(X_INTRODUCED_90_,[X_INTRODUCED_23_,X_INTRODUCED_44_],0,X_INTRODUCED_187_):: defines_var(X_INTRODUCED_187_);
constraint int_lin_ne_reif(X_INTRODUCED_90_,[X_INTRODUCED_44_,X_INTRODUCED_50_],0,X_INTRODUCED_188_):: defines_var(X_INTRODUCED_188_);
constraint int_lin_ne_reif(X_INTRODUCED_90_,[X_INTRODUCED_50_,X_INTRODUCED_23_],0,X_INTRODUCED_189_):: defines_var(X_INTRODUCED_189_);
constraint bool_clause([X_INTRODUCED_187_,X_INTRODUCED_188_,X_INTRODUCED_189_],[]);
constraint int_lin_ne_reif(X_INTRODUCED_90_,[X_INTRODUCED_23_,X_INTRODUCED_69_],0,X_INTRODUCED_191_):: defines_var(X_INTRODUCED_191_);
constraint int_lin_ne_reif(X_INTRODUCED_90_,[X_INTRODUCED_69_,X_INTRODUCED_73_],0,X_INTRODUCED_192_):: defines_var(X_INTRODUCED_192_);
constraint int_lin_ne_reif(X_INTRODUCED_90_,[X_INTRODUCED_73_,X_INTRODUCED_23_],0,X_INTRODUCED_193_):: defines_var(X_INTRODUCED_193_);
constraint bool_clause([X_INTRODUCED_191_,X_INTRODUCED_192_,X_INTRODUCED_193_],[]);
constraint int_lin_ne_reif(X_INTRODUCED_90_,[X_INTRODUCED_24_,X_INTRODUCED_59_],0,X_INTRODUCED_195_):: defines_var(X_INTRODUCED_195_);
constraint int_lin_ne_reif(X_INTRODUCED_90_,[X_INTRODUCED_59_,X_INTRODUCED_64_],0,X_INTRODUCED_196_):: defines_var(X_INTRODUCED_196_);
constraint int_lin_ne_reif(X_INTRODUCED_90_,[X_INTRODUCED_64_,X_INTRODUCED_24_],0,X_INTRODUCED_197_):: defines_var(X_INTRODUCED_197_);
constraint bool_clause([X_INTRODUCED_195_,X_INTRODUCED_196_,X_INTRODUCED_197_],[]);
constraint int_lin_ne_reif(X_INTRODUCED_90_,[X_INTRODUCED_26_,X_INTRODUCED_35_],0,X_INTRODUCED_199_):: defines_var(X_INTRODUCED_199_);
constraint int_lin_ne_reif(X_INTRODUCED_90_,[X_INTRODUCED_35_,X_INTRODUCED_44_],0,X_INTRODUCED_200_):: defines_var(X_INTRODUCED_200_);
constraint int_lin_ne_reif(X_INTRODUCED_90_,[X_INTRODUCED_44_,X_INTRODUCED_26_],0,X_INTRODUCED_201_):: defines_var(X_INTRODUCED_201_);
constraint bool_clause([X_INTRODUCED_199_,X_INTRODUCED_200_,X_INTRODUCED_201_],[]);
constraint int_lin_ne_reif(X_INTRODUCED_90_,[X_INTRODUCED_27_,X_INTRODUCED_44_],0,X_INTRODUCED_203_):: defines_var(X_INTRODUCED_203_);
constraint int_lin_ne_reif(X_INTRODUCED_90_,[X_INTRODUCED_44_,X_INTRODUCED_52_],0,X_INTRODUCED_204_):: defines_var(X_INTRODUCED_204_);
constraint int_lin_ne_reif(X_INTRODUCED_90_,[X_INTRODUCED_52_,X_INTRODUCED_27_],0,X_INTRODUCED_205_):: defines_var(X_INTRODUCED_205_);
constraint bool_clause([X_INTRODUCED_203_,X_INTRODUCED_204_,X_INTRODUCED_205_],[]);
constraint int_lin_ne_reif(X_INTRODUCED_90_,[X_INTRODUCED_29_,X_INTRODUCED_39_],0,X_INTRODUCED_207_):: defines_var(X_INTRODUCED_207_);
constraint int_lin_ne_reif(X_INTRODUCED_90_,[X_INTRODUCED_39_,X_INTRODUCED_49_],0,X_INTRODUCED_208_):: defines_var(X_INTRODUCED_208_);
constraint int_lin_ne_reif(X_INTRODUCED_90_,[X_INTRODUCED_49_,X_INTRODUCED_29_],0,X_INTRODUCED_209_):: defines_var(X_INTRODUCED_209_);
constraint bool_clause([X_INTRODUCED_207_,X_INTRODUCED_208_,X_INTRODUCED_209_],[]);
constraint int_lin_ne_reif(X_INTRODUCED_90_,[X_INTRODUCED_29_,X_INTRODUCED_71_],0,X_INTRODUCED_211_):: defines_var(X_INTRODUCED_211_);
constraint int_lin_ne_reif(X_INTRODUCED_90_,[X_INTRODUCED_71_,X_INTRODUCED_77_],0,X_INTRODUCED_212_):: defines_var(X_INTRODUCED_212_);
constraint int_lin_ne_reif(X_INTRODUCED_90_,[X_INTRODUCED_77_,X_INTRODUCED_29_],0,X_INTRODUCED_213_):: defines_var(X_INTRODUCED_213_);
constraint bool_clause([X_INTRODUCED_211_,X_INTRODUCED_212_,X_INTRODUCED_213_],[]);
constraint int_lin_ne_reif(X_INTRODUCED_90_,[X_INTRODUCED_31_,X_INTRODUCED_59_],0,X_INTRODUCED_215_):: defines_var(X_INTRODUCED_215_);
constraint int_lin_ne_reif(X_INTRODUCED_90_,[X_INTRODUCED_59_,X_INTRODUCED_67_],0,X_INTRODUCED_216_):: defines_var(X_INTRODUCED_216_);
constraint int_lin_ne_reif(X_INTRODUCED_90_,[X_INTRODUCED_67_,X_INTRODUCED_31_],0,X_INTRODUCED_217_):: defines_var(X_INTRODUCED_217_);
constraint bool_clause([X_INTRODUCED_215_,X_INTRODUCED_216_,X_INTRODUCED_217_],[]);
constraint int_lin_ne_reif(X_INTRODUCED_90_,[X_INTRODUCED_32_,X_INTRODUCED_43_],0,X_INTRODUCED_219_):: defines_var(X_INTRODUCED_219_);
constraint int_lin_ne_reif(X_INTRODUCED_90_,[X_INTRODUCED_43_,X_INTRODUCED_54_],0,X_INTRODUCED_220_):: defines_var(X_INTRODUCED_220_);
constraint int_lin_ne_reif(X_INTRODUCED_90_,[X_INTRODUCED_54_,X_INTRODUCED_32_],0,X_INTRODUCED_221_):: defines_var(X_INTRODUCED_221_);
constraint bool_clause([X_INTRODUCED_219_,X_INTRODUCED_220_,X_INTRODUCED_221_],[]);
constraint int_lin_ne_reif(X_INTRODUCED_90_,[X_INTRODUCED_32_,X_INTRODUCED_55_],0,X_INTRODUCED_223_):: defines_var(X_INTRODUCED_223_);
constraint int_lin_ne_reif(X_INTRODUCED_90_,[X_INTRODUCED_55_,X_INTRODUCED_64_],0,X_INTRODUCED_224_):: defines_var(X_INTRODUCED_224_);
constraint int_lin_ne_reif(X_INTRODUCED_90_,[X_INTRODUCED_64_,X_INTRODUCED_32_],0,X_INTRODUCED_225_):: defines_var(X_INTRODUCED_225_);
constraint bool_clause([X_INTRODUCED_223_,X_INTRODUCED_224_,X_INTRODUCED_225_],[]);
constraint int_lin_ne_reif(X_INTRODUCED_90_,[X_INTRODUCED_35_,X_INTRODUCED_47_],0,X_INTRODUCED_227_):: defines_var(X_INTRODUCED_227_);
constraint int_lin_ne_reif(X_INTRODUCED_90_,[X_INTRODUCED_47_,X_INTRODUCED_59_],0,X_INTRODUCED_228_):: defines_var(X_INTRODUCED_228_);
constraint int_lin_ne_reif(X_INTRODUCED_90_,[X_INTRODUCED_59_,X_INTRODUCED_35_],0,X_INTRODUCED_229_):: defines_var(X_INTRODUCED_229_);
constraint bool_clause([X_INTRODUCED_227_,X_INTRODUCED_228_,X_INTRODUCED_229_],[]);
constraint int_lin_ne_reif(X_INTRODUCED_90_,[X_INTRODUCED_35_,X_INTRODUCED_76_],0,X_INTRODUCED_231_):: defines_var(X_INTRODUCED_231_);
constraint int_lin_ne_reif(X_INTRODUCED_90_,[X_INTRODUCED_76_,X_INTRODUCED_84_],0,X_INTRODUCED_232_):: defines_var(X_INTRODUCED_232_);
constraint int_lin_ne_reif(X_INTRODUCED_90_,[X_INTRODUCED_84_,X_INTRODUCED_35_],0,X_INTRODUCED_233_):: defines_var(X_INTRODUCED_233_);
constraint bool_clause([X_INTRODUCED_231_,X_INTRODUCED_232_,X_INTRODUCED_233_],[]);
constraint int_lin_ne_reif(X_INTRODUCED_90_,[X_INTRODUCED_38_,X_INTRODUCED_51_],0,X_INTRODUCED_235_):: defines_var(X_INTRODUCED_235_);
constraint int_lin_ne_reif(X_INTRODUCED_90_,[X_INTRODUCED_51_,X_INTRODUCED_64_],0,X_INTRODUCED_236_):: defines_var(X_INTRODUCED_236_);
constraint int_lin_ne_reif(X_INTRODUCED_90_,[X_INTRODUCED_64_,X_INTRODUCED_38_],0,X_INTRODUCED_237_):: defines_var(X_INTRODUCED_237_);
constraint bool_clause([X_INTRODUCED_235_,X_INTRODUCED_236_,X_INTRODUCED_237_],[]);
constraint int_lin_ne_reif(X_INTRODUCED_90_,[X_INTRODUCED_38_,X_INTRODUCED_79_],0,X_INTRODUCED_239_):: defines_var(X_INTRODUCED_239_);
constraint int_lin_ne_reif(X_INTRODUCED_90_,[X_INTRODUCED_79_,X_INTRODUCED_88_],0,X_INTRODUCED_240_):: defines_var(X_INTRODUCED_240_);
constraint int_lin_ne_reif(X_INTRODUCED_90_,[X_INTRODUCED_88_,X_INTRODUCED_38_],0,X_INTRODUCED_241_):: defines_var(X_INTRODUCED_241_);
constraint bool_clause([X_INTRODUCED_239_,X_INTRODUCED_240_,X_INTRODUCED_241_],[]);
constraint int_lin_ne_reif(X_INTRODUCED_90_,[X_INTRODUCED_39_,X_INTRODUCED_41_],0,X_INTRODUCED_243_):: defines_var(X_INTRODUCED_243_);
constraint int_lin_ne_reif(X_INTRODUCED_90_,[X_INTRODUCED_41_,X_INTRODUCED_57_],0,X_INTRODUCED_244_):: defines_var(X_INTRODUCED_244_);
constraint int_lin_ne_reif(X_INTRODUCED_90_,[X_INTRODUCED_57_,X_INTRODUCED_39_],0,X_INTRODUCED_245_):: defines_var(X_INTRODUCED_245_);
constraint bool_clause([X_INTRODUCED_243_,X_INTRODUCED_244_,X_INTRODUCED_245_],[]);
constraint int_lin_ne_reif(X_INTRODUCED_90_,[X_INTRODUCED_39_,X_INTRODUCED_74_],0,X_INTRODUCED_247_):: defines_var(X_INTRODUCED_247_);
constraint int_lin_ne_reif(X_INTRODUCED_90_,[X_INTRODUCED_74_,X_INTRODUCED_84_],0,X_INTRODUCED_248_):: defines_var(X_INTRODUCED_248_);
constraint int_lin_ne_reif(X_INTRODUCED_90_,[X_INTRODUCED_84_,X_INTRODUCED_39_],0,X_INTRODUCED_249_):: defines_var(X_INTRODUCED_249_);
constraint bool_clause([X_INTRODUCED_247_,X_INTRODUCED_248_,X_INTRODUCED_249_],[]);
constraint int_lin_ne_reif(X_INTRODUCED_90_,[X_INTRODUCED_41_,X_INTRODUCED_55_],0,X_INTRODUCED_251_):: defines_var(X_INTRODUCED_251_);
constraint int_lin_ne_reif(X_INTRODUCED_90_,[X_INTRODUCED_55_,X_INTRODUCED_69_],0,X_INTRODUCED_252_):: defines_var(X_INTRODUCED_252_);
constraint int_lin_ne_reif(X_INTRODUCED_90_,[X_INTRODUCED_69_,X_INTRODUCED_41_],0,X_INTRODUCED_253_):: defines_var(X_INTRODUCED_253_);
constraint bool_clause([X_INTRODUCED_251_,X_INTRODUCED_252_,X_INTRODUCED_253_],[]);
constraint int_lin_ne_reif(X_INTRODUCED_90_,[X_INTRODUCED_44_,X_INTRODUCED_59_],0,X_INTRODUCED_255_):: defines_var(X_INTRODUCED_255_);
constraint int_lin_ne_reif(X_INTRODUCED_90_,[X_INTRODUCED_59_,X_INTRODUCED_74_],0,X_INTRODUCED_256_):: defines_var(X_INTRODUCED_256_);
constraint int_lin_ne_reif(X_INTRODUCED_90_,[X_INTRODUCED_74_,X_INTRODUCED_44_],0,X_INTRODUCED_257_):: defines_var(X_INTRODUCED_257_);
constraint bool_clause([X_INTRODUCED_255_,X_INTRODUCED_256_,X_INTRODUCED_257_],[]);
constraint int_lin_ne_reif(X_INTRODUCED_90_,[X_INTRODUCED_47_,X_INTRODUCED_54_],0,X_INTRODUCED_259_):: defines_var(X_INTRODUCED_259_);
constraint int_lin_ne_reif(X_INTRODUCED_90_,[X_INTRODUCED_54_,X_INTRODUCED_72_],0,X_INTRODUCED_260_):: defines_var(X_INTRODUCED_260_);
constraint int_lin_ne_reif(X_INTRODUCED_90_,[X_INTRODUCED_72_,X_INTRODUCED_47_],0,X_INTRODUCED_261_):: defines_var(X_INTRODUCED_261_);
constraint bool_clause([X_INTRODUCED_259_,X_INTRODUCED_260_,X_INTRODUCED_261_],[]);
constraint int_lin_ne_reif(X_INTRODUCED_90_,[X_INTRODUCED_47_,X_INTRODUCED_63_],0,X_INTRODUCED_263_):: defines_var(X_INTRODUCED_263_);
constraint int_lin_ne_reif(X_INTRODUCED_90_,[X_INTRODUCED_63_,X_INTRODUCED_79_],0,X_INTRODUCED_264_):: defines_var(X_INTRODUCED_264_);
constraint int_lin_ne_reif(X_INTRODUCED_90_,[X_INTRODUCED_79_,X_INTRODUCED_47_],0,X_INTRODUCED_265_):: defines_var(X_INTRODUCED_265_);
constraint bool_clause([X_INTRODUCED_263_,X_INTRODUCED_264_,X_INTRODUCED_265_],[]);
constraint int_lin_ne_reif(X_INTRODUCED_90_,[X_INTRODUCED_50_,X_INTRODUCED_67_],0,X_INTRODUCED_267_):: defines_var(X_INTRODUCED_267_);
constraint int_lin_ne_reif(X_INTRODUCED_90_,[X_INTRODUCED_67_,X_INTRODUCED_84_],0,X_INTRODUCED_268_):: defines_var(X_INTRODUCED_268_);
constraint int_lin_ne_reif(X_INTRODUCED_90_,[X_INTRODUCED_84_,X_INTRODUCED_50_],0,X_INTRODUCED_269_):: defines_var(X_INTRODUCED_269_);
constraint bool_clause([X_INTRODUCED_267_,X_INTRODUCED_268_,X_INTRODUCED_269_],[]);
constraint int_lin_ne_reif(X_INTRODUCED_90_,[X_INTRODUCED_53_,X_INTRODUCED_71_],0,X_INTRODUCED_271_):: defines_var(X_INTRODUCED_271_);
constraint int_lin_ne_reif(X_INTRODUCED_90_,[X_INTRODUCED_71_,X_INTRODUCED_89_],0,X_INTRODUCED_272_):: defines_var(X_INTRODUCED_272_);
constraint int_lin_ne_reif(X_INTRODUCED_90_,[X_INTRODUCED_89_,X_INTRODUCED_53_],0,X_INTRODUCED_273_):: defines_var(X_INTRODUCED_273_);
constraint bool_clause([X_INTRODUCED_271_,X_INTRODUCED_272_,X_INTRODUCED_273_],[]);
constraint int_lin_ne_reif(X_INTRODUCED_90_,[X_INTRODUCED_59_,X_INTRODUCED_62_],0,X_INTRODUCED_275_):: defines_var(X_INTRODUCED_275_);
constraint int_lin_ne_reif(X_INTRODUCED_90_,[X_INTRODUCED_62_,X_INTRODUCED_86_],0,X_INTRODUCED_276_):: defines_var(X_INTRODUCED_276_);
constraint int_lin_ne_reif(X_INTRODUCED_90_,[X_INTRODUCED_86_,X_INTRODUCED_59_],0,X_INTRODUCED_277_):: defines_var(X_INTRODUCED_277_);
constraint bool_clause([X_INTRODUCED_275_,X_INTRODUCED_276_,X_INTRODUCED_277_],[]);
solve  satisfy;
